p cnf 100 140
-93 -60 98 0
-3 49 -55 0
-52 -43 37 0
-31 -35 -14 0
-67 71 -25 0
-63 -97 -69 0
49 -42 68 0
-78 -10 79 0
-54 73 8 0
62 81 -74 0
28 66 71 0
-100 41 62 0
-86 67 -15 0
69 -36 55 0
-26 -72 -17 0
-84 -75 -78 0
99 -93 64 0
76 -11 38 0
1 16 -69 0
56 16 -90 0
45 87 38 0
-65 85 -51 0
70 -36 42 0
14 8 79 0
-84 -79 -30 0
-3 36 58 0
-16 -62 43 0
-64 30 63 0
-19 -51 89 0
34 72 61 0
-11 61 -96 0
-81 -5 -25 0
-9 -66 -87 0
100 -46 71 0
-21 62 -77 0
14 25 62 0
28 -10 47 0
-91 85 -10 0
-25 -74 -89 0
73 -59 79 0
-69 -86 77 0
-13 71 89 0
81 -90 -62 0
67 19 -38 0
-46 99 25 0
73 -53 -54 0
-56 37 -43 0
-64 65 -28 0
-6 -41 10 0
57 37 -42 0
-100 45 53 0
93 -63 -69 0
47 -55 95 0
-94 14 -9 0
7 27 87 0
51 1 -96 0
-71 -10 9 0
-66 -51 -30 0
-59 -4 82 0
91 -60 -43 0
-36 -35 42 0
-80 -92 -45 0
21 -1 -28 0
97 -96 -43 0
-36 -50 -78 0
1 41 29 0
23 93 -80 0
70 -56 80 0
-22 -82 -49 0
53 -35 30 0
84 48 83 0
-8 -50 100 0
-95 -75 44 0
44 3 81 0
-70 78 -86 0
19 -56 -64 0
78 -32 -68 0
-48 12 -40 0
-97 22 69 0
62 -86 -60 0
53 -90 23 0
20 -3 -28 0
60 39 53 0
-28 21 34 0
39 -83 -27 0
47 48 -32 0
78 -14 94 0
-64 27 93 0
1 46 78 0
-15 58 -67 0
-68 -6 -85 0
-16 -54 -2 0
-54 83 -12 0
-34 39 -58 0
48 -24 45 0
-98 24 22 0
-14 -27 -8 0
-23 -35 43 0
69 -35 -31 0
-8 -24 66 0
x 1 -2 -6 -8 -9 10 -12 15 16 -19 20 -21 -23 -24 26 29 -33 -35 -37 38 -40 -44 -49 50 51 -52 55 56 59 -60 -61 62 -63 -64 65 66 71 72 76 -78 79 80 -88 -92 -95 98 0
x -5 -10 11 -12 -14 16 17 18 19 24 -25 27 -29 30 31 -32 -34 40 41 44 45 -46 47 -48 -49 51 -53 -56 57 -58 59 -61 63 64 -65 68 70 75 -76 -77 79 80 -81 82 83 86 -87 89 90 94 95 96 97 99 0
x 1 3 5 -9 10 11 14 16 17 18 -19 25 26 27 -29 -30 -32 -33 35 -38 39 40 -41 42 43 -45 -48 -50 53 -56 -60 -61 -63 -64 -65 71 -73 74 -75 76 78 -79 84 85 -88 89 90 -91 94 -97 0
x 4 5 11 -12 14 -15 17 -20 -22 23 -25 26 -27 -28 -30 -35 -36 38 41 43 -45 -48 50 -51 52 -53 -54 -55 56 -57 -58 -62 63 -64 -67 -68 69 -71 72 -73 -76 77 -78 -81 -83 84 85 -86 -88 89 -90 91 -92 -98 0
x -5 -6 7 8 9 -11 14 15 -16 17 -18 19 -20 -21 22 -26 -27 -29 -33 34 -37 -39 -40 -41 43 44 -45 47 50 51 -58 -59 60 61 62 63 -65 70 -74 -75 80 -82 83 85 87 88 -89 -90 -91 92 -93 -94 96 98 99 100 0
x -1 -3 -4 5 7 8 10 -12 13 -14 17 20 21 23 24 -26 -28 30 -33 -36 37 39 -41 -45 46 47 48 49 -51 -52 53 55 -56 59 60 -62 66 -67 -70 72 -73 75 77 78 80 -81 -83 -84 85 -88 -89 90 91 92 -93 97 99 0
x -1 -4 -8 -9 10 -11 -15 18 22 -24 25 30 -31 -34 35 -39 -41 42 -44 -46 -47 -50 51 -52 53 55 -59 66 -67 68 69 -73 -74 -75 -76 -77 -78 -81 -84 -86 -88 -92 96 -98 100 0
x 4 -7 -13 -17 19 -20 -21 -25 31 35 39 41 42 -43 -44 -46 -47 -48 49 -50 -51 52 -56 60 62 64 -67 -68 -69 70 71 72 -73 74 75 81 83 -84 88 91 -93 -94 -95 -96 97 98 -100 0
x 5 6 -7 -8 -9 -12 -13 -17 -20 -21 -22 -24 -26 27 28 -30 34 40 -42 43 45 -47 48 50 -54 -55 -58 60 -64 65 70 -74 -76 77 -78 -79 80 -84 85 86 87 -88 89 90 -93 -94 -97 98 0
x 1 6 -10 -11 -12 -13 -14 -15 21 22 -23 -24 26 27 30 32 36 -39 40 41 46 -47 -50 -53 -57 59 61 62 63 65 67 71 73 75 -77 79 80 82 -85 -86 -87 -95 0
x 3 4 8 -9 11 -12 -13 14 -17 19 20 -21 -25 27 -30 -32 -33 34 -38 -43 44 45 46 47 -49 50 51 54 56 -57 59 -60 61 -64 -65 66 -67 68 71 -72 -73 74 75 -77 -78 -80 81 -82 83 -84 -85 86 87 -89 90 91 -94 95 -100 0
x -2 -3 -4 5 7 -8 10 12 13 14 15 16 17 -20 -21 -22 -24 -26 -31 -32 -36 -40 -41 -43 -47 -49 52 -54 -57 58 59 62 -63 -64 65 67 68 -71 72 77 80 81 -82 83 85 86 88 90 96 -99 -100 0
x 1 -4 -5 9 -13 -14 15 -17 -18 -19 20 -21 -22 27 28 34 -35 -38 -39 40 -42 -43 44 -47 -51 -55 56 57 -58 -59 61 62 63 65 68 70 74 -76 -77 -80 81 -82 85 -86 87 88 -95 -96 0
x -2 3 7 8 -10 11 -14 17 18 22 -24 -26 28 30 33 34 -35 -36 37 38 39 40 44 -45 -48 51 -52 57 -59 -61 -62 64 67 69 70 73 75 78 79 -80 -82 -83 86 -87 -89 91 92 95 -98 100 0
x 3 -5 -6 10 -11 -12 14 -17 19 -22 27 -30 31 -34 -37 38 41 -44 46 47 49 -51 -53 -54 -55 -56 58 -61 -64 -67 -70 72 73 74 -77 -78 80 -81 -82 85 90 93 95 96 -97 0
x 1 4 6 7 8 9 10 14 -15 16 17 23 -25 27 -33 35 -37 38 -39 40 41 42 -43 -46 -48 -50 -51 -52 53 -54 -56 -57 -58 59 -62 67 69 -71 -75 -78 -79 82 87 -88 -89 91 92 -95 99 0
x 2 3 -6 -8 -10 -17 19 -25 26 27 -30 -34 -35 -39 41 -42 44 -45 -47 -48 -52 53 54 56 57 -58 -61 62 64 67 -68 69 70 -72 73 -74 75 76 80 -83 -84 -86 89 90 -93 -94 -95 96 -97 0
x 4 -5 8 -9 -10 -12 14 15 17 -23 26 28 -35 -36 37 -38 -41 43 -45 -46 -47 49 -50 51 52 53 -54 55 -57 -58 -59 -60 -62 63 -64 68 -69 -70 71 74 -75 79 80 -83 85 87 -89 91 -92 94 0
x -1 -2 -4 5 -6 7 8 9 -12 -15 -19 20 22 -26 28 -29 -31 -34 -35 40 -41 42 43 49 -60 -64 -67 68 -69 71 -73 76 -78 80 -82 -83 86 87 88 -89 91 -96 99 0
x 1 -4 7 8 10 -12 13 14 -15 16 18 19 -24 -25 -28 32 33 -34 -36 -40 -41 -42 44 45 -46 47 48 -51 54 -55 -59 63 68 69 70 -72 -73 74 75 78 -79 -83 -85 86 89 90 96 97 0
x -4 -6 -8 -9 13 16 -18 -19 21 -23 26 -31 -32 34 37 39 42 -43 46 47 48 -49 -51 52 54 55 -56 58 -59 60 63 64 -65 66 68 69 70 -74 -77 78 79 -83 -84 -85 88 89 -96 -100 0
x 3 7 8 12 13 -14 -16 -18 21 23 25 27 29 32 -35 -36 -38 -40 41 43 -46 48 -51 -53 58 59 62 -64 65 66 -67 -68 69 71 -72 76 -79 -82 -85 -86 87 88 92 -94 96 97 98 0
x -2 -3 -5 -6 -8 9 11 14 16 18 20 -21 -26 -27 28 29 -30 -31 -33 35 -36 38 -40 -41 42 -43 -49 50 51 -52 -57 -58 -59 60 -61 64 -65 70 -72 74 -75 76 -77 78 -79 -80 82 83 86 -87 -89 -91 92 -93 -94 -96 98 0
x 1 -2 4 -5 -6 7 -9 -10 13 14 -16 -18 -20 22 -24 25 27 -31 35 37 38 40 -41 43 -44 -45 -46 -48 49 -50 -51 52 54 -58 59 -61 -62 -64 -67 68 -69 71 74 -75 78 -79 80 81 -85 -87 -89 -91 95 99 0
x 1 2 4 -5 -7 9 12 -13 14 -15 16 -19 -24 27 28 31 34 -36 37 39 40 -42 -46 48 49 -51 -53 54 55 -56 60 62 63 -66 -67 -69 70 -72 -73 74 75 77 -80 -81 82 85 86 89 91 94 -97 -98 -99 -100 0
x 1 2 6 -10 -11 12 -14 18 20 -21 -25 26 27 28 29 30 32 33 35 -40 41 46 48 -49 -50 -52 -54 -55 56 -59 -60 61 66 -67 68 70 74 -75 -77 78 85 86 -88 89 92 -95 -97 -98 -99 100 0
x -1 -2 3 -5 6 -7 10 -11 -13 -16 17 -18 22 23 24 31 32 -33 -34 -37 39 -41 -42 43 45 46 -47 -48 -51 -52 53 -54 56 -58 -60 62 -65 68 73 -75 76 -78 79 -85 -87 88 -91 -93 -94 -95 96 98 -99 -100 0
x -4 -7 -8 9 -10 13 -14 18 -23 24 28 -31 -32 -34 36 -37 -40 -41 -42 -44 -47 48 -50 -52 -54 -58 59 61 -62 65 -66 67 69 -70 72 -74 -75 76 79 -85 -87 88 92 93 96 -98 99 0
x -1 2 3 4 -5 -7 8 9 -12 -14 15 16 -20 24 25 26 36 -37 38 -39 40 41 -42 44 -47 -48 49 50 -51 -53 -54 56 -57 59 -60 61 63 67 68 -69 -71 -72 73 -74 -75 80 81 -82 -86 88 -90 93 -96 -99 0
x -2 -3 -6 11 12 -13 14 -15 -16 -17 -19 20 21 -23 -24 26 27 29 30 31 -32 -36 -38 -40 -41 -44 -48 49 50 -51 -54 56 57 -58 -59 61 62 64 65 -67 -70 72 75 -77 -86 -87 -88 89 -92 -93 -94 -96 -100 0
x 1 -5 -6 -10 -11 13 15 -16 -17 18 -20 -21 24 25 -26 -27 33 -34 -36 -38 -40 -44 45 -47 -48 -49 -54 55 57 -59 60 -61 65 67 73 -74 77 -81 -84 -85 -86 89 -90 -94 -96 97 98 99 -100 0
x -1 -2 -4 -5 6 -7 -9 13 15 -20 22 -26 -27 -29 -30 32 -33 -34 35 38 39 -40 45 48 -50 51 -59 61 62 -63 65 66 68 -69 72 -75 -76 -77 78 -79 80 86 87 92 -94 95 97 -99 -100 0
x 4 -6 11 -12 13 14 -17 -18 19 -22 24 25 26 28 29 -32 -36 -39 41 43 -47 -49 54 -55 -59 60 -62 -64 -65 -67 68 70 -71 72 -75 -76 -77 -79 83 84 85 88 -90 -91 -92 93 -94 95 -97 98 99 100 0
x -1 3 7 -8 10 -14 -18 19 23 26 -27 -30 31 32 -33 34 38 39 42 43 -44 -47 -48 49 50 -51 53 -55 56 -64 -67 -68 70 73 74 77 -78 -79 -81 82 -83 -85 -88 -91 -96 98 99 0
x -1 -5 6 -9 -10 11 13 17 -24 26 27 29 33 34 -37 39 41 42 -43 -44 45 46 50 -53 54 -55 -56 -58 -59 -60 -65 66 -67 69 -71 -73 -76 -78 -82 -84 -85 -86 88 92 -94 -98 -99 -100 0
x -1 -3 7 -8 10 11 -12 13 -14 -18 19 -21 -22 25 -26 -28 29 30 -33 34 35 37 41 44 -46 48 49 -53 -56 57 58 -64 -71 -72 73 74 77 79 80 84 86 87 88 -89 -91 95 96 -97 0
x -1 4 6 -9 12 -13 14 -22 -27 30 -33 36 -39 43 -45 49 50 51 -52 -57 59 -60 -62 63 -64 66 68 69 70 71 76 79 -81 -82 83 -85 86 87 -88 -91 -92 -93 -94 -95 -97 0
x 2 3 4 6 -7 -11 12 13 -14 18 -19 -21 25 27 -32 33 -34 36 -37 -40 43 -45 46 47 48 49 51 -52 56 57 58 62 63 66 -68 -72 73 -75 81 -82 85 -89 91 -93 94 95 96 -97 0
x 1 -3 7 -8 -11 12 -16 17 19 21 22 -24 -25 -26 27 28 -32 -35 -37 -38 40 -41 44 -49 50 -52 58 -60 -61 -63 -66 -67 68 69 -71 -72 -73 -74 75 -76 78 79 -80 -81 82 83 -84 -85 89 94 96 -100 0
x 1 3 -7 9 -14 -17 -18 -19 -21 -22 -23 24 -27 -30 -31 -34 37 -38 -39 43 44 46 -48 51 -53 58 -60 -61 -63 64 -66 -68 -69 71 72 -73 74 75 76 -78 -81 -82 83 -84 89 -92 94 95 -97 -99 100 0
